experiment/data/hgs-res/Vrp-Set-B-n43/Vrp-Set-B-n43-hgs/0.hgs1.vrp
NAME : 0
COMMENT : CVRP Instance
TYPE : CVRP
DIMENSION : 43
EDGE_WEIGHT_TYPE : EUC_2D
CAPACITY : 100
NODE_COORD_SECTION
1	74.0	34.0
2	9.0	22.0
3	13.0	28.0
4	47.0	63.0
5	74.0	43.0
6	71.0	10.0
7	11.0	61.0
8	23.0	33.0
9	14.0	29.0
10	31.0	34.0
11	22.0	29.0
12	50.0	66.0
13	16.0	30.0
14	48.0	70.0
15	16.0	0.0
16	18.0	33.0
17	20.0	34.0
18	26.0	36.0
19	49.0	0.0
20	19.0	0.0
21	80.0	17.0
22	75.0	13.0
23	18.0	68.0
24	10.0	27.0
25	12.0	66.0
26	80.0	50.0
27	29.0	43.0
28	79.0	48.0
29	14.0	0.0
30	76.0	51.0
31	54.0	68.0
32	17.0	30.0
33	78.0	50.0
34	72.0	19.0
35	23.0	37.0
36	78.0	45.0
37	14.0	34.0
38	0.0	15.0
39	16.0	31.0
40	24.0	37.0
41	84.0	47.0
42	80.0	44.0
43	24.0	41.0
DEMAND_SECTION
1	0
2	25
3	19
4	8
5	10
6	1
7	14
8	11
9	20
10	23
11	3
12	4
13	6
14	23
15	7
16	15
17	13
18	3
19	11
20	24
21	8
22	14
23	8
24	9
25	24
26	10
27	19
28	10
29	5
30	7
31	23
32	11
33	12
34	4
35	11
36	16
37	22
38	24
39	12
40	5
41	11
42	7
43	9
DEPOT_SECTION
1
-1
EOF
