experiment/data/hgs-res/Vrp-Set-B-n43/Vrp-Set-B-n43-hgs/0.hgs1.tour
Route #1: 31 38 12 8 2 23 36
Route #2: 5 18 19 14 28 37 1 10
Route #3: 33 21 20
Route #4: 35 41 40 27 25 32 29 30
Route #5: 4 3 11 13 22 24 6 42
Route #6: 9 17 7 15 16 34 39 26
Cost 746.694
